\ Equation counts
\     Total        E        G        L        N        X        C        B
\        54        6       12       36        0        0        0        0
\ 
\ Variable counts
\                  x        b        i      s1s      s2s       sc       si
\     Total     cont   binary  integer     sos1     sos2    scont     sint
\        30       12       18        0        0        0        0        0
\ 
\ Nonzero counts
\     Total    const       NL      DLL
\       168      120       48        0
\ 
Minimize
 obj: 0 x1 + 0 x2 + 0 x3 + 0 x4 + 0 x5 + 0 x6 + 0 b7 + 0 b8 + 0 b9 + 0 b10 + 0 b11 + 0 b12 + 0 b13 + 0 b14 
  + 0 b15 + 0 b16 + 0 b17 + 0 b18 + 0 b19 + 0 b20 + 0 b21 + 0 b22 + 0 b23 + 0 b24 + 300 x25 + 2.4e2 x26 
  + 100 x27 + 300 x28 + 2.4e2 x29 + 100 x30

Subject To
 e2: - x1 + x2 + x25 >= 0
 e3: - x1 + x3 + x26 >= 0
 e4: - x2 + x3 + x27 >= 0
 e5: x1 - x2 + x25 >= 0
 e6: x1 - x3 + x26 >= 0
 e7: x2 - x3 + x27 >= 0
 e8: - x4 + x5 + x28 >= 0
 e9: - x4 + x6 + x29 >= 0
 e10: - x5 + x6 + x30 >= 0
 e11: x4 - x5 + x28 >= 0
 e12: x4 - x6 + x29 >= 0
 e13: x5 - x6 + x30 >= 0
 e14: x1 - x2 + 46 b7 <= 40
 e15: x1 - x3 + 46 b8 <= 42
 e16: x2 - x3 + 46 b9 <= 41
 e17: - x1 + x2 + 46 b10 <= 40
 e18: - x1 + x3 + 46 b11 <= 42
 e19: - x2 + x3 + 46 b12 <= 41
 e20: x4 - x5 + 81 b13 <= 75.5
 e21: x4 - x6 + 81 b14 <= 76.5
 e22: x5 - x6 + 81 b15 <= 77
 e23: - x4 + x5 + 81 b16 <= 75.5
 e24: - x4 + x6 + 81 b17 <= 76.5
 e25: - x5 + x6 + 81 b18 <= 77
 e26: b7 + b10 + b13 + b16 = 1
 e27: b8 + b11 + b14 + b17 = 1
 e28: b9 + b12 + b15 + b18 = 1
 e29: - 35 x1 - 14 x4 + 6814 b19 + [ x1^2 + x4^2 ] <= 6494.75
 e30: - 37 x2 - 15 x5 + 6678 b20 + [ x2^2 + x5^2 ] <= 6315.5
 e31: - 33 x3 - 17 x6 + 6958 b21 + [ x3^2 + x6^2 ] <= 6649.5
 e32: - 105 x1 - 154 x4 + 6556 b22 + [ x1^2 + x4^2 ] <= -2104.25
 e33: - 107 x2 - 155 x5 + 6697 b23 + [ x2^2 + x5^2 ] <= -2146.5
 e34: - 103 x3 - 157 x6 + 6985 b24 + [ x3^2 + x6^2 ] <= -1804.5
 e35: - 35 x1 - 26 x4 + 5.95e3 b19 + [ x1^2 + x4^2 ] <= 5510.75
 e36: - 37 x2 - 25 x5 + 5953 b20 + [ x2^2 + x5^2 ] <= 5490.5
 e37: - 33 x3 - 23 x6 + 6517 b21 + [ x3^2 + x6^2 ] <= 6148.5
 e38: - 105 x1 - 166 x4 + 7432 b22 + [ x1^2 + x4^2 ] <= -2188.25
 e39: - 107 x2 - 165 x5 + 7432 b23 + [ x2^2 + x5^2 ] <= -2211.5
 e40: - 103 x3 - 163 x6 + 7432 b24 + [ x3^2 + x6^2 ] <= -1837.5
 e41: - 25 x1 - 14 x4 + 7189 b19 + [ x1^2 + x4^2 ] <= 7019.75
 e42: - 23 x2 - 15 x5 + 7189 b20 + [ x2^2 + x5^2 ] <= 7036.5
 e43: - 27 x3 - 17 x6 + 7189 b21 + [ x3^2 + x6^2 ] <= 6970.5
 e44: - 95 x1 - 154 x4 + 6171 b22 + [ x1^2 + x4^2 ] <= -1989.25
 e45: - 93 x2 - 155 x5 + 6172 b23 + [ x2^2 + x5^2 ] <= -1971.5
 e46: - 97 x3 - 157 x6 + 6748 b24 + [ x3^2 + x6^2 ] <= -1741.5
 e47: - 25 x1 - 26 x4 + 6325 b19 + [ x1^2 + x4^2 ] <= 6035.75
 e48: - 23 x2 - 25 x5 + 6464 b20 + [ x2^2 + x5^2 ] <= 6211.5
 e49: - 27 x3 - 23 x6 + 6748 b21 + [ x3^2 + x6^2 ] <= 6469.5
 e50: - 95 x1 - 166 x4 + 7047 b22 + [ x1^2 + x4^2 ] <= -2073.25
 e51: - 93 x2 - 165 x5 + 6907 b23 + [ x2^2 + x5^2 ] <= -2036.5
 e52: - 97 x3 - 163 x6 + 7195 b24 + [ x3^2 + x6^2 ] <= -1774.5
 e53: b19 + b22 = 1
 e54: b20 + b23 = 1
 e55: b21 + b24 = 1

Bounds
 11.5 <= x1 <= 52.5
 12.5 <= x2 <= 51.5
 10.5 <= x3 <= 53.5
 7 <= x4 <= 82
 6.5 <= x5 <= 82.5
 5.5 <= x6 <= 83.5

Binary
 b7 b8 b9 b10 b11 b12 b13 b14 b15 b16 b17 b18 b19 b20 b21 b22 b23 b24

End
